(declare-const a Real)
(declare-const b Real)
(declare-const c Real)
(assert (= (* a b c) 1))
(assert (> a 0))
(assert (> b 0))
(assert (> c 0))
(assert (not (<= (+ (* -3326576 (pow b 4)) (* -2503280 (pow a 4)) (* -7077888 (pow a (pow 3 -1)) (pow b (/ 11 3))) (* -3538944 (pow a (/ 10 3)) (pow b (/ 2 3))) (* 3861104 b (pow a 3)) (* 12585584 a (pow b 3))) 0)))
(check-sat)
(get-model)
(exit)